
  32    1
  10

   0   0  11 2 3 4 5 6 7 8 10 12 14 31 
  10   1   6 27 25 16 15 11 9 
   1   3   8 29 27 26 25 21 19 16 13 
   5   2   5 25 20 19 17 9 
   6   4   6 30 28 25 19 16 13 
   7   4   3 27 25 9 
  10   4   5 29 26 25 17 15 
   2   2   5 27 25 24 22 15 
  10   2   5 28 26 24 22 18 
   2   1   5 27 26 25 23 17 
  10   3   4 26 24 19 18 
  10   2   4 25 24 23 17 
   7   1   3 24 23 22 
   2   3   2 25 24 
   8   2   1 18 
   4   3   1 17 
   4   1   1 22 
   3   1   1 23 
   3   2   1 22 
   5   2   1 24 
   9   1   1 22 
   3   2   1 32
   3   3   1 32
   8   2   1 32
  10   1   1 32
   3   1   1 32
   7   1   1 32
  10   2   1 32
  10   1   1 32
   7   1   1 32
   4   2   1 32
   0   0   0 
